files/upTests/tuples_nested3/0001.eprime.solution
language ESSENCE' 1.0
$ minion Nodes: 1
$ minion TotalTime: 0.00067
$ Savile Row TotalTime: 0.285
letting y_tuple1 be 1
letting y_tuple3 be 4
letting y_tuple4_tuple1 be 5
letting y_tuple4_tuple2 be 6
letting y_tuple2_Occurrence be [1, 1]
letting y_tuple4_tuple3_Occurrence be [1, 1, 1]
